data/CVRPLIB/Vrp-Set-XML100/instances/XML100_3313_24.vrp
NAME : XML100_3313_24
COMMENT : Generated by Queiroga, Sadykov, Uchoa, and Vidal (2021)
TYPE : CVRP
DIMENSION : 101
EDGE_WEIGHT_TYPE : EUC_2D
CAPACITY : 11
NODE_COORD_SECTION
1    0    0   
2    636  133 
3    14   988 
4    885  660 
5    846  452 
6    715  87  
7    468  508 
8    556  169 
9    845  96  
10   588  15  
11   945  508 
12   489  16  
13   118  306 
14   771  819 
15   378  336 
16   192  675 
17   626  972 
18   553  399 
19   723  622 
20   310  782 
21   121  309 
22   61   490 
23   599  471 
24   457  694 
25   216  502 
26   102  239 
27   383  430 
28   430  100 
29   669  362 
30   34   419 
31   888  663 
32   988  263 
33   310  451 
34   489  224 
35   861  563 
36   902  299 
37   393  434 
38   309  556 
39   970  514 
40   44   770 
41   947  561 
42   287  364 
43   1    997 
44   879  551 
45   694  252 
46   270  419 
47   773  65  
48   22   278 
49   911  564 
50   315  975 
51   638  120 
52   98   662 
53   599  504 
54   375  498 
55   993  248 
56   951  108 
57   829  570 
58   870  561 
59   968  944 
60   727  920 
61   327  375 
62   149  506 
63   461  493 
64   184  295 
65   318  468 
66   126  157 
67   259  272 
68   309  376 
69   918  333 
70   814  62  
71   384  457 
72   893  308 
73   34   82  
74   785  277 
75   619  782 
76   108  273 
77   326  193 
78   261  739 
79   467  540 
80   45   424 
81   775  378 
82   748  752 
83   110  328 
84   898  604 
85   61   350 
86   102  353 
87   997  103 
88   60   326 
89   343  141 
90   430  477 
91   615  649 
92   946  780 
93   474  551 
94   176  419 
95   954  265 
96   863  268 
97   946  560 
98   445  386 
99   591  167 
100  65   266 
101  145  365 
DEMAND_SECTION
1    0   
2    1   
3    1   
4    1   
5    1   
6    1   
7    1   
8    1   
9    1   
10   1   
11   1   
12   1   
13   1   
14   1   
15   1   
16   1   
17   1   
18   1   
19   1   
20   1   
21   1   
22   1   
23   1   
24   1   
25   1   
26   1   
27   1   
28   1   
29   1   
30   1   
31   1   
32   1   
33   1   
34   1   
35   1   
36   1   
37   1   
38   1   
39   1   
40   1   
41   1   
42   1   
43   1   
44   1   
45   1   
46   1   
47   1   
48   1   
49   1   
50   1   
51   1   
52   1   
53   1   
54   1   
55   1   
56   1   
57   1   
58   1   
59   1   
60   1   
61   1   
62   1   
63   1   
64   1   
65   1   
66   1   
67   1   
68   1   
69   1   
70   1   
71   1   
72   1   
73   1   
74   1   
75   1   
76   1   
77   1   
78   1   
79   1   
80   1   
81   1   
82   1   
83   1   
84   1   
85   1   
86   1   
87   1   
88   1   
89   1   
90   1   
91   1   
92   1   
93   1   
94   1   
95   1   
96   1   
97   1   
98   1   
99   1   
100  1   
101  1   
DEPOT_SECTION
1
-1
EOF
