data/CVRPLIB/Vrp-Set-XML100/solutions/XML100_3313_24.sol
Route #1: 72
Route #2: 25 75 12 20 82 85 79 29 84 87 99
Route #3: 14 97 89 62 6 78 92 37 24 93 100
Route #4: 63 45 32 64 70 36 26 60 67 41 66
Route #5: 44 95 94 31 54 86 55 8 69 46 5
Route #6: 65 76 33 7 98 1 50 9 11 27 88
Route #7: 47 21 51 39 42 2 49 19 77 15 61
Route #8: 73 71 35 68 10 38 40 96 4 80 28
Route #9: 17 56 34 57 43 48 83 30 3 18 22
Route #10: 53 23 74 16 59 58 91 13 81 90 52
Cost 17885
